P2
# image d epaisseurs optiques interpolee par interp.f, (100=aod 1)
# pixsiz    1.000
# lat0      2.000
# lon0      2.000
 8 8
 255
 8 8 8 7 7 6 6 6
 8 8 8 8 7 5 6 7
 8 8 8 8 6 3 6 7
 8 8 8 8 6 7 7 8
 8 8 8 8 16 10 9 9
 8 8 8 7 10 12 11 10
 8 8 8 8 10 11 10 10
 8 9 9 9 10 10 10 10
