P2
# image d epaisseurs optiques interpolee par interp.f, (100=aod 1)
# pixsiz    1.000
# lat0      2.000
# lon0      2.000
 8 8
 255
 11 11 11 11 11 11 11 12
 10 10 10 12 11 12 12 13
 10 10 8 15 10 11 12 13
 10 10 7 14 13 9 12 14
 10 10 8 13 26 16 16 16
 10 10 10 9 1 26 19 17
 10 11 11 11 12 18 18 17
 10 12 12 12 13 15 16 17
