P2
# image d epaisseurs optiques interpolee par interp.f, (100=aod 1)
# pixsiz    1.000
# lat0      2.000
# lon0      2.000
 8 8
 255
 8 8 8 8 7 7 7 7
 8 8 9 8 7 7 8 8
 7 8 10 9 6 7 7 8
 7 7 5 8 7 5 7 9
 7 7 5 7 14 10 10 10
 6 7 6 5 3 17 13 11
 6 7 7 7 8 12 12 11
 6 7 7 8 9 10 10 11
