P2
# image d epaisseurs optiques interpolee par interp.f, (100=aod 1)
# pixsiz    1.000
# lat0      2.000
# lon0      2.000
 8 8
 255
 7 7 7 7 7 6 6 6
 7 8 8 7 7 7 7 8
 7 8 11 6 7 6 7 8
 7 6 3 5 5 5 7 8
 6 7 6 5 13 10 10 10
 6 7 7 6 10 15 12 11
 6 7 7 8 10 13 12 11
 6 8 8 9 10 11 11 11
