P2
# image d epaisseurs optiques interpolee par interp.f, (100=aod 1)
# pixsiz    1.000
# lat0      2.000
# lon0      2.000
 8 8
 255
 4 3 4 6 7 7 8 8
 3 2 2 7 8 8 8 8
 3 0 -4 11 9 8 8 8
 3 2 3 8 11 8 8 9
 5 5 7 11 24 0 8 9
 6 7 8 8 -1 22 13 11
 7 7 8 8 8 13 12 11
 7 8 8 8 9 10 11 10
