P2
# image d epaisseurs optiques interpolee par interp.f, (100=aod 1)
# pixsiz    0.500
# lat0      2.000
# lon0      2.000
 8 8
 255
  40  0  0  0  0  0  0  0
  0 40  0  0  0  0  0  0
  0  0  0  0  0  6  0  0
  0  0  0  0  10  5  0  0
  0  0  0  20 10  10  0  0
  0  0  0  0  0  5  0  0
  0  0  0  45  0  0  2  0
  0  0  0  0  0  0  4  0
